
Gurobi 9.0.1 (linux64) logging started Thu Apr 30 16:36:53 2020

Gurobi Optimizer version 9.0.1 build v9.0.1rc0 (linux64)
Optimize a model with 13307 rows, 12060 columns and 202950 nonzeros
Model fingerprint: 0x4f9e2703
Variable types: 0 continuous, 12060 integer (12032 binary)
Coefficient statistics:
  Matrix range     [1e+00, 1e+01]
  Objective range  [5e+00, 1e+02]
  Bounds range     [1e+00, 1e+00]
  RHS range        [1e+00, 1e+00]

User MIP start produced solution with objective 916 (0.27s)
Loaded user MIP start with objective 916

Presolve removed 5054 rows and 3900 columns
Presolve time: 3.05s
Presolved: 8253 rows, 8160 columns, 165405 nonzeros
Variable types: 0 continuous, 8160 integer (8134 binary)

Root simplex log...

Iteration    Objective       Primal Inf.    Dual Inf.      Time
    2481    4.6268428e+02   4.636509e+03   0.000000e+00      5s
    6213    4.8159609e+02   2.396693e+03   0.000000e+00     10s
    8826    4.9155092e+02   8.073801e+02   0.000000e+00     15s
   11133    4.9756110e+02   5.972394e+02   0.000000e+00     20s
   13163    5.0000929e+02   2.928211e+01   0.000000e+00     25s
   13448    5.0009175e+02   0.000000e+00   0.000000e+00     26s

Root relaxation: objective 5.000917e+02, 13448 iterations, 22.67 seconds

    Nodes    |    Current Node    |     Objective Bounds      |     Work
 Expl Unexpl |  Obj  Depth IntInf | Incumbent    BestBd   Gap | It/Node Time

     0     0  500.09175    0 1829  916.00000  500.09175  45.4%     -   28s
     0     0  514.24816    0 1830  916.00000  514.24816  43.9%     -   51s
     0     0  514.27126    0 1814  916.00000  514.27126  43.9%     -   53s
     0     0  514.27126    0 1813  916.00000  514.27126  43.9%     -   54s
     0     0  522.46925    0 1848  916.00000  522.46925  43.0%     -   72s
     0     0  522.58834    0 1835  916.00000  522.58834  42.9%     -   75s
     0     0  522.59960    0 1839  916.00000  522.59960  42.9%     -   75s
     0     0  522.59960    0 1839  916.00000  522.59960  42.9%     -   76s
     0     0  537.63039    0 1844  916.00000  537.63039  41.3%     -  112s
     0     0  538.15835    0 1860  916.00000  538.15835  41.2%     -  116s
     0     0  538.29070    0 1864  916.00000  538.29070  41.2%     -  119s
     0     0  538.30912    0 1869  916.00000  538.30912  41.2%     -  120s
     0     0  538.31423    0 1864  916.00000  538.31423  41.2%     -  121s
     0     0  543.34318    0 1868  916.00000  543.34318  40.7%     -  158s
     0     0  543.73342    0 1883  916.00000  543.73342  40.6%     -  164s
     0     0  543.78988    0 1882  916.00000  543.78988  40.6%     -  166s
     0     0  543.79778    0 1882  916.00000  543.79778  40.6%     -  167s
     0     0  544.71171    0 1891  916.00000  544.71171  40.5%     -  179s
     0     0  544.90821    0 1896  916.00000  544.90821  40.5%     -  185s
     0     0  544.93466    0 1900  916.00000  544.93466  40.5%     -  187s
     0     0  544.93959    0 1905  916.00000  544.93959  40.5%     -  188s
     0     0  545.85556    0 1905  916.00000  545.85556  40.4%     -  199s
     0     0  545.98472    0 1920  916.00000  545.98472  40.4%     -  205s
     0     0  546.01158    0 1920  916.00000  546.01158  40.4%     -  206s
     0     0  546.02165    0 1911  916.00000  546.02165  40.4%     -  207s
     0     0  546.60338    0 1871  916.00000  546.60338  40.3%     -  217s
     0     0  546.67181    0 1885  916.00000  546.67181  40.3%     -  222s
     0     0  546.69510    0 1898  916.00000  546.69510  40.3%     -  223s
     0     0  546.70834    0 1899  916.00000  546.70834  40.3%     -  225s
     0     0  547.08379    0 1908  916.00000  547.08379  40.3%     -  234s
     0     0  547.14943    0 1918  916.00000  547.14943  40.3%     -  239s
     0     0  547.16321    0 1919  916.00000  547.16321  40.3%     -  240s
     0     0  547.33842    0 1914  916.00000  547.33842  40.2%     -  247s
     0     0  547.39149    0 1922  916.00000  547.39149  40.2%     -  251s
     0     0  547.40847    0 1921  916.00000  547.40847  40.2%     -  253s
     0     0  547.82218    0 1910  916.00000  547.82218  40.2%     -  260s
     0     0  547.88194    0 1914  916.00000  547.88194  40.2%     -  266s
     0     0  547.90124    0 1913  916.00000  547.90124  40.2%     -  268s
     0     0  547.90429    0 1915  916.00000  547.90429  40.2%     -  269s
     0     0  548.66597    0 1900  916.00000  548.66597  40.1%     -  279s
     0     0  548.75609    0 1915  916.00000  548.75609  40.1%     -  287s
     0     0  548.77448    0 1914  916.00000  548.77448  40.1%     -  288s
     0     0  548.77801    0 1920  916.00000  548.77801  40.1%     -  289s
     0     0  549.37272    0 1898  916.00000  549.37272  40.0%     -  298s
     0     0  549.45784    0 1920  916.00000  549.45784  40.0%     -  302s
     0     0  549.48835    0 1912  916.00000  549.48835  40.0%     -  304s
     0     0  549.49936    0 1911  916.00000  549.49936  40.0%     -  305s
     0     0  549.86526    0 1901  916.00000  549.86526  40.0%     -  313s
     0     0  549.91642    0 1916  916.00000  549.91642  40.0%     -  317s
     0     0  549.92920    0 1908  916.00000  549.92920  40.0%     -  318s
     0     0  549.95176    0 1911  916.00000  549.95176  40.0%     -  322s
     0     0  549.95176    0 1911  916.00000  549.95176  40.0%     -  327s
     0     2  549.95656    0 1911  916.00000  549.95656  40.0%     -  383s
     1     3  575.12333    1 1741  916.00000  549.95656  40.0% 16254  452s
     2     4  551.27467    1 1919  916.00000  551.27467  39.8%  9490  463s
     3     5  570.75982    2 1709  916.00000  551.27467  39.8% 15550  571s
     4     6  551.51087    2 1903  916.00000  551.51087  39.8% 11864  575s
     5     7  565.49124    3 1711  916.00000  551.51087  39.8% 12820  646s
     6     8  552.60308    3 1890  916.00000  552.60308  39.7% 11085  657s
     7     9  553.58907    4 1904  916.00000  552.60308  39.7%  9958  669s
     8    10  577.37823    4 1672  916.00000  553.58907  39.6% 10678  729s
     9    11  554.03912    5 1896  916.00000  553.58907  39.6%  9697  736s
    10    12  578.46546    5 1601  916.00000  554.03912  39.5% 10086  796s
    11    13  554.78467    6 1897  916.00000  554.03912  39.5%  9383  807s
    12    14  577.07425    6 1677  916.00000  554.78467  39.4%  9577  860s
    13    15  555.66868    7 1898  916.00000  554.78467  39.4%  8975  869s
    14    16  576.10247    7 1646  916.00000  555.67095  39.3%  9375  936s
    15    17  556.25898    8 1882  916.00000  555.67212  39.3%  8875  943s
    16    18  556.89887    9 1885  916.00000  555.67212  39.3%  8482  952s
    17    19  557.30162   10 1882  916.00000  555.67212  39.3%  8046  957s
    18    20  558.15658   11 1881  916.00000  555.67212  39.3%  7687  965s
    19    21  583.26382   11 1661  916.00000  555.67212  39.3%  8591 1067s
    20    22  558.97478   12 1879  916.00000  555.67212  39.3%  8297 1076s
    21    23  585.96167   12 1650  916.00000  555.67212  39.3%  8562 1123s
    22    24  559.18594   13 1872  916.00000  555.67212  39.3%  8214 1127s
    23    25  584.48869   13 1633  916.00000  555.67212  39.3%  8758 1213s
    24    26  559.68162   14 1868  916.00000  555.67212  39.3%  8480 1220s
    25    27  586.71099   14 1658  916.00000  555.67212  39.3%  8716 1270s
    26    28  560.52683   15 1859  916.00000  555.67212  39.3%  8451 1278s
    27    29  584.47434   15 1631  916.00000  555.67212  39.3%  8841 1357s
    28    30  561.03574   16 1842  916.00000  555.67212  39.3%  8597 1364s
    29    31  587.09729   16 1690  916.00000  555.67212  39.3%  8783 1410s
    30    32  561.39478   17 1829  916.00000  555.67212  39.3%  8529 1415s
    31    33  599.71630   17 1741  916.00000  555.67212  39.3%  9110 1528s
    32    34  561.67393   18 1839  916.00000  555.67212  39.3%  8864 1586s
    33    35  585.99857   18 1657  916.00000  555.67212  39.3%  9012 1633s
    34    36  562.48267   19 1849  916.00000  555.67212  39.3%  8819 1642s
    35    37  563.64920   20 1834  916.00000  555.67212  39.3%  8643 1651s
    36    38  585.09744   20 1729  916.00000  555.67212  39.3%  8724 1693s
    37    39  563.81969   21 1828  916.00000  555.67212  39.3%  8503 1695s
    38    40  589.02131   22 1629  916.00000  555.67212  39.3%  8644 1747s
    39    41  565.12943   22 1820  916.00000  555.67212  39.3%  8473 1754s
    40    42  604.89870   23 1688  916.00000  555.67212  39.3%  8691 1823s
    41    43  565.76357   23 1831  916.00000  555.67212  39.3%  8540 1831s
    42    44  589.17998   24 1657  916.00000  555.67212  39.3%  8650 1871s
    44    46  588.85072   25 1652  916.00000  555.67212  39.3%  8762 1947s
    45    47  566.45838   25 1797  916.00000  555.67212  39.3%  8626 1955s
    46    48  593.57959   26 1596  916.00000  555.67212  39.3%  8707 1994s
    47    49  568.06846   26 1830  916.00000  555.67212  39.3%  8591 2004s
    48    50  595.99489   27 1653  916.00000  555.67212  39.3%  8690 2046s
    49    51  568.83585   27 1821  916.00000  555.67212  39.3%  8547 2053s
    50    52  594.39756   28 1581  916.00000  555.67212  39.3%  8748 2125s
    51    53  569.15620   28 1815  916.00000  555.67212  39.3%  8615 2132s
    52    54  597.73830   29 1644  916.00000  555.67212  39.3%  8707 2174s
    53    55  569.73770   29 1828  916.00000  555.67212  39.3%  8566 2179s
    54    56  597.25105   30 1638  916.00000  555.67212  39.3%  9070 2319s
    55    57  570.51349   30 1810  916.00000  555.67212  39.3%  8956 2327s
    56    58  599.08006   31 1612  916.00000  555.67212  39.3%  9012 2362s
    57    59  570.69959   31 1802  916.00000  555.67212  39.3%  8874 2365s
    58    60  593.61373   32 1675  916.00000  555.67212  39.3%  8925 2404s
    59    61  571.23877   32 1766  916.00000  555.67212  39.3%  8801 2437s
    60    62  603.47781   33 1633  916.00000  555.67212  39.3%  8851 2477s
    61    63  571.76684   33 1790  916.00000  555.67212  39.3%  8730 2482s
    62    64  600.65193   34 1642  916.00000  555.67212  39.3%  8799 2523s
    63    65  572.74619   34 1804  916.00000  555.67212  39.3%  8686 2528s
    64    66  603.49418   35 1639  916.00000  555.67212  39.3%  8900 2607s
    65    67  573.71523   35 1771  916.00000  555.67212  39.3%  8800 2614s
    66    68  594.97848   36 1617  916.00000  555.67212  39.3%  8808 2644s
    67    69  574.51834   36 1795  916.00000  555.67212  39.3%  8708 2651s
    68    70  603.03696   37 1575  916.00000  555.67212  39.3%  8771 2695s
    69    71  574.84662   37 1782  916.00000  555.67212  39.3%  8668 2701s
    70    72  576.05744   38 1763  916.00000  555.67212  39.3%  8582 2709s
    71    73  576.42850   39 1790  916.00000  555.67212  39.3%  8481 2714s
    72    74  595.49816   40 1638  916.00000  555.67212  39.3%  8514 2750s
    73    75  576.95225   40 1770  916.00000  555.67212  39.3%  8421 2756s
    74    76  618.35922   41 1609  916.00000  555.67212  39.3%  8502 2802s
    75    77  577.33870   41 1756  916.00000  555.67212  39.3%  8405 2807s
    76    78  577.80073   42 1721  916.00000  555.67212  39.3%  8309 2811s
    77    79  628.35049   43 1544  916.00000  555.67212  39.3%  8449 2884s
    78    80  578.29171   43 1739  916.00000  555.67212  39.3%  8363 2890s
    79    81  579.96628   44 1765  916.00000  555.67212  39.3%  8297 2900s
    80    82  608.99398   44 1514  916.00000  555.67212  39.3%  8349 2937s
    81    83  582.11721   45 1756  916.00000  555.67212  39.3%  8285 2956s
    82    84  604.42077   45 1629  916.00000  555.67212  39.3%  8306 2987s
    83    85  583.12972   46 1772  916.00000  555.67212  39.3%  8236 2996s
    84    86  633.34769   46 1590  916.00000  555.67212  39.3%  8284 3033s
    85    87  585.05519   47 1782  916.00000  555.67212  39.3%  8222 3043s
    86    88  623.42972   48 1571  916.00000  555.67212  39.3%  8253 3078s
    87    89  586.23267   48 1766  916.00000  555.67212  39.3%  8183 3086s
    88    90  608.29481   49 1629  916.00000  555.67212  39.3%  8199 3155s
    89    91  586.99855   49 1767  916.00000  555.67212  39.3%  8124 3161s
    90    92  621.19258   50 1598  916.00000  555.67212  39.3%  8230 3226s
    91    93  588.32122   50 1765  916.00000  555.67212  39.3%  8166 3234s
    92    94  589.35731   51 1739  916.00000  555.67212  39.3%  8092 3238s
    93    95  590.21497   52 1748  916.00000  555.67212  39.3%  8026 3244s
    94    96  590.63801   53 1740  916.00000  555.67212  39.3%  7953 3248s
    95    97  610.47046   54 1678  916.00000  555.67212  39.3%  7959 3278s
    96    98  591.25664   54 1715  916.00000  555.67212  39.3%  7896 3284s
    97    99  592.59130   55 1742  916.00000  555.67212  39.3%  7842 3293s
    98   100  633.38557   56 1578  916.00000  555.67212  39.3%  7887 3333s
    99   101  593.98679   56 1720  916.00000  555.67212  39.3%  7831 3340s
   100   102  625.19245   57 1538  916.00000  555.67212  39.3%  7854 3370s
   101   103  596.78424   57 1737  916.00000  555.67212  39.3%  7804 3380s
   102   104  647.88848   58 1550  916.00000  555.67212  39.3%  7870 3434s
   103   105  597.80464   58 1720  916.00000  555.67212  39.3%  7819 3442s
   104   106  608.40257   59 1607  916.00000  555.67212  39.3%  7822 3465s
   105   107  605.46657   59 1719  916.00000  555.67212  39.3%  7805 3486s
   106   108  606.32029   60 1716  916.00000  555.67212  39.3%  7748 3491s
   107   109  634.30257   61 1566  916.00000  555.67212  39.3%  7772 3526s
   108   110  607.33820   61 1723  916.00000  555.67212  39.3%  7719 3543s
   109   111  637.37971   62 1524  916.00000  555.67212  39.3%  7761 3586s

Cutting planes:
  MIR: 51
  StrongCG: 7
  Zero half: 28
  Mod-K: 4
  RLT: 1020

Explored 111 nodes (912343 simplex iterations) in 3600.01 seconds
Thread count was 1 (of 40 available processors)

Solution count 1: 916 

Time limit reached
Best objective 9.160000000000e+02, best bound 5.560000000000e+02, gap 39.3013%

User-callback calls 49555, time in user-callback 0.13 sec
